c WARNING: for repeatability, setting FPU to use double precision
d VARIABLES            27129        
d CONSTRAINTS          89130        
c ============================[ Problem Statistics ]=============================
c |                                                                             |
c |  Number of variables:         27129                                         |
c |  Number of clauses:           89130                                         |
c |  Parse time:                   0.01 s                                       |
c |                                                                             |
c ============================[ Search Statistics ]==============================
c | Conflicts |          ORIGINAL         |          LEARNT          | Progress |
c |           |    Vars  Clauses Literals |    Limit  Clauses Lit/Cl |          |
c ===============================================================================
c |       100 |   16490    60646   152840 |    22236       99     84 | 39.217 % |
c |       250 |   16490    60646   152840 |    24460      249     70 | 39.216 % |
c |       475 |   16490    60642   152830 |    26906      474     65 | 39.216 % |
c |       812 |   16490    60642   152830 |    29597      811     71 | 39.216 % |
c |      1318 |   16490    60642   152830 |    32556     1317     79 | 39.216 % |
c |      2077 |   16490    60642   152830 |    35812     2076     77 | 39.216 % |
c |      3216 |   16490    60642   152830 |    39393     3215     77 | 39.216 % |
c |      4924 |   16490    60642   152830 |    43333     4923     74 | 39.216 % |
c |      7486 |   16490    60642   152830 |    47666     7485     70 | 39.216 % |
c |     11330 |   16490    60642   152830 |    52433    11329     71 | 39.216 % |
c |     17096 |   16490    60642   152830 |    57676    17095     84 | 39.216 % |
c |     25745 |   16490    60642   152830 |    63444    25744     90 | 39.216 % |
c |     38719 |   16490    60642   152830 |    69788    38718     85 | 39.216 % |
c ===============================================================================
c restarts              : 173
c conflicts             : 55403          (5179 /sec)
c decisions             : 107756         (0.00 % random) (10074 /sec)
c propagations          : 42181515       (3943426 /sec)
c conflict literals     : 4488161        (53.85 % deleted)
d RESTARTS             173
d FAILURES             55403        
d NODES                107756       
d BACKTRACKS           107756       
d PROPAGATIONS         42181515     
d NOGOODSIZE           81.01 
d MEMORY               43.00 
d TIME                 10.6967 

s UNSATISFIABLE
